n_res = 3;
rcap = [16, 16, 99];
rtype = [1, 1, 2];
n_tasks = 16;
modes = [ {1, 2, 3}, {4, 5, 6}, {7, 8, 9}, {10, 11, 12}, {13, 14, 15}, {16, 17, 18}, {19, 20, 21}, {22, 23, 24}, {25, 26, 27}, {28, 29, 30}, {31, 32, 33}, {34, 35, 36}, {37, 38, 39}, {40, 41, 42}, {43, 44, 45}, {46, 47, 48} ];
succ = [ {12, 15, 16}, {4, 5, 6}, {6, 9, 11}, {7, 11}, {7, 11}, {12, 15}, {8, 12}, {9, 10}, {13}, {13, 16}, {14, 16}, {14}, {14, 15}, {}, {}, {} ];
n_opt = 48;
dur = [1, 8, 9, 7, 8, 9, 4, 6, 7, 1, 3, 3, 4, 5, 10, 1, 6, 7, 1, 6, 7, 2, 8, 9, 1, 2, 6, 2, 3, 7, 2, 3, 7, 1, 2, 4, 5, 5, 9, 6, 10, 10, 2, 7, 9, 1, 2, 10];
rreq = [|  5,  4,  4,  5,  4,  4,  6,  6,  5,  5,  2,  2,  8,  8,  8,  7,  7,  7,  8,  7,  7,  7,  7,  5,  9,  6,  6,  9,  9,  8,  8,  6,  6,  9,  8,  8,  7,  9,  7,  9,  5,  3,  6,  5,  3,  6,  6,  5
        |  9,  7,  5,  4,  4,  3, 10,  8,  7,  8,  5,  6,  8,  7,  5,  6,  3,  2,  9,  9,  6,  8,  7,  6,  9,  5,  4,  8,  6,  5,  4,  2,  2,  9,  8,  5, 10,  9,  8,  6,  1,  4,  6,  5,  3, 10, 10,  9
        |  7,  6,  4,  6,  6,  6,  7,  5,  3,  8,  6,  5,  9,  8,  7,  9,  7,  5,  7,  5,  5,  8,  4,  1,  8,  8,  7,  6,  6,  4,  9,  8,  7,  7,  6,  4,  7,  8,  3,  9,  7,  4,  8,  6,  6,  6,  5,  4 |];
